\ Model Parallel identical processor scheduling with weighted completion times as set-covering formulation
\ LP format - for model browsing. Use MPS format to capture full model detail.
Minimize
  5741 x_s[0] + 5614 x_s[1] + 6146 x_s[2] + 5790 x_s[3] + 6035 x_s[4]
   + 5714 x_s[5] + 5692 x_s[6] + 5847 x_s[7] + 5754 x_s[8] + 6184 x_s[9]
   + 5708 x_s[10] + 5641 x_s[11] + 5679 x_s[12] + 5722 x_s[13]
   + 5791 x_s[14] + 6090 x_s[15] + 6060 x_s[16] + 5827 x_s[17]
   + 5647 x_s[18] + 5753 x_s[19] + 5732 x_s[20] + 5717 x_s[21]
   + 6160 x_s[22] + 5678 x_s[23] + 5717 x_s[24] + 5741 x_s[25]
   + 6152 x_s[26] + 5678 x_s[27] + 5630 x_s[28] + 5585 x_s[29]
   + 5972 x_s[30] + 6103 x_s[31] + 5759 x_s[32] + 6036 x_s[33]
   + 5851 x_s[34] + 5641 x_s[35] + 5754 x_s[36] + 6160 x_s[37]
   + 5641 x_s[38] + 5732 x_s[39]
Subject To
 R0: x_s[0] + x_s[1] + x_s[2] + x_s[3] + x_s[4] + x_s[5] + x_s[6] + x_s[7]
   + x_s[8] + x_s[9] + x_s[10] + x_s[11] + x_s[12] + x_s[13] + x_s[14]
   + x_s[15] + x_s[16] + x_s[17] + x_s[18] + x_s[19] + x_s[20] + x_s[21]
   + x_s[22] + x_s[23] + x_s[24] + x_s[25] + x_s[26] + x_s[27] + x_s[28]
   + x_s[29] + x_s[30] + x_s[31] + x_s[32] + x_s[33] + x_s[34] + x_s[35]
   + x_s[36] + x_s[37] + x_s[38] + x_s[39] = 4
 R1: x_s[3] + x_s[5] + x_s[8] + x_s[12] + x_s[19] + x_s[23] + x_s[27]
   + x_s[28] + x_s[32] + x_s[36] = 1
 R2: x_s[3] + x_s[7] + x_s[11] + x_s[13] + x_s[18] + x_s[21] + x_s[24]
   + x_s[31] + x_s[35] + x_s[38] = 1
 R3: x_s[3] + x_s[4] + x_s[9] + x_s[12] + x_s[19] + x_s[23] + x_s[27]
   + x_s[30] + x_s[32] + x_s[36] = 1
 R4: x_s[0] + x_s[7] + x_s[10] + x_s[14] + x_s[16] + x_s[20] + x_s[25]
   + x_s[28] + x_s[33] + x_s[39] = 1
 R5: x_s[3] + x_s[6] + x_s[11] + x_s[12] + x_s[18] + x_s[23] + x_s[27]
   + x_s[31] + x_s[35] + x_s[38] = 1
 R6: x_s[3] + x_s[6] + x_s[11] + x_s[12] + x_s[18] + x_s[23] + x_s[27]
   + x_s[31] + x_s[35] + x_s[38] = 1
 R7: x_s[2] + x_s[7] + x_s[10] + x_s[14] + x_s[17] + x_s[22] + x_s[26]
   + x_s[31] + x_s[33] + x_s[37] = 1
 R8: x_s[1] + x_s[4] + x_s[9] + x_s[13] + x_s[19] + x_s[21] + x_s[24]
   + x_s[29] + x_s[32] + x_s[36] = 1
 R9: x_s[0] + x_s[5] + x_s[10] + x_s[15] + x_s[17] + x_s[22] + x_s[25]
   + x_s[29] + x_s[33] + x_s[37] = 1
 R10: x_s[2] + x_s[5] + x_s[8] + x_s[15] + x_s[17] + x_s[22] + x_s[26]
   + x_s[30] + x_s[34] + x_s[37] = 1
 R11: x_s[0] + x_s[7] + x_s[10] + x_s[15] + x_s[17] + x_s[20] + x_s[25]
   + x_s[31] + x_s[34] + x_s[39] = 1
 R12: x_s[2] + x_s[5] + x_s[8] + x_s[14] + x_s[16] + x_s[22] + x_s[26]
   + x_s[28] + x_s[33] + x_s[37] = 1
 R13: x_s[2] + x_s[4] + x_s[9] + x_s[15] + x_s[16] + x_s[20] + x_s[26]
   + x_s[30] + x_s[34] + x_s[39] = 1
 R14: x_s[1] + x_s[6] + x_s[11] + x_s[13] + x_s[18] + x_s[21] + x_s[24]
   + x_s[29] + x_s[35] + x_s[38] = 1
 R15: x_s[3] + x_s[6] + x_s[8] + x_s[13] + x_s[18] + x_s[22] + x_s[26]
   + x_s[29] + x_s[32] + x_s[37] = 1
 R16: x_s[0] + x_s[7] + x_s[10] + x_s[14] + x_s[16] + x_s[20] + x_s[25]
   + x_s[28] + x_s[33] + x_s[39] = 1
 R17: x_s[3] + x_s[4] + x_s[9] + x_s[12] + x_s[19] + x_s[23] + x_s[27]
   + x_s[31] + x_s[32] + x_s[36] = 1
 R18: x_s[1] + x_s[6] + x_s[11] + x_s[13] + x_s[18] + x_s[21] + x_s[24]
   + x_s[29] + x_s[35] + x_s[38] = 1
 R19: x_s[2] + x_s[7] + x_s[10] + x_s[15] + x_s[17] + x_s[22] + x_s[26]
   + x_s[31] + x_s[33] + x_s[37] = 1
 R20: x_s[0] + x_s[5] + x_s[8] + x_s[14] + x_s[16] + x_s[20] + x_s[25]
   + x_s[28] + x_s[34] + x_s[39] = 1
 R21: x_s[1] + x_s[4] + x_s[9] + x_s[13] + x_s[19] + x_s[21] + x_s[24]
   + x_s[29] + x_s[32] + x_s[36] = 1
 R22: x_s[1] + x_s[6] + x_s[8] + x_s[12] + x_s[19] + x_s[23] + x_s[27]
   + x_s[28] + x_s[32] + x_s[36] = 1
 R23: x_s[0] + x_s[7] + x_s[10] + x_s[14] + x_s[16] + x_s[20] + x_s[25]
   + x_s[28] + x_s[33] + x_s[39] = 1
 R24: x_s[2] + x_s[5] + x_s[8] + x_s[15] + x_s[17] + x_s[22] + x_s[26]
   + x_s[30] + x_s[34] + x_s[37] = 1
 R25: x_s[1] + x_s[4] + x_s[9] + x_s[12] + x_s[17] + x_s[21] + x_s[24]
   + x_s[31] + x_s[34] + x_s[36] = 1
 R26: x_s[2] + x_s[5] + x_s[11] + x_s[15] + x_s[19] + x_s[23] + x_s[27]
   + x_s[30] + x_s[35] + x_s[38] = 1
 R27: x_s[0] + x_s[4] + x_s[9] + x_s[14] + x_s[16] + x_s[20] + x_s[25]
   + x_s[30] + x_s[34] + x_s[39] = 1
 R28: x_s[3] + x_s[6] + x_s[9] + x_s[12] + x_s[19] + x_s[23] + x_s[27]
   + x_s[30] + x_s[32] + x_s[36] = 1
 R29: x_s[1] + x_s[4] + x_s[11] + x_s[13] + x_s[18] + x_s[21] + x_s[24]
   + x_s[29] + x_s[35] + x_s[38] = 1
 R30: x_s[2] + x_s[5] + x_s[8] + x_s[14] + x_s[16] + x_s[22] + x_s[26]
   + x_s[28] + x_s[33] + x_s[37] = 1
Bounds
Binaries
 x_s[0] x_s[1] x_s[2] x_s[3] x_s[4] x_s[5] x_s[6] x_s[7] x_s[8] x_s[9]
 x_s[10] x_s[11] x_s[12] x_s[13] x_s[14] x_s[15] x_s[16] x_s[17] x_s[18]
 x_s[19] x_s[20] x_s[21] x_s[22] x_s[23] x_s[24] x_s[25] x_s[26] x_s[27]
 x_s[28] x_s[29] x_s[30] x_s[31] x_s[32] x_s[33] x_s[34] x_s[35] x_s[36]
 x_s[37] x_s[38] x_s[39]
End
